45 56
15 25
10 45
21 22
84 82
72 56
40 86
47 38
54 71
76 44
48 44
16 59
35 70
72 79
49 6
66 79
59 74
10 18
45 95
56 29
10 21
53 9
62 58
20 81
81 76
23 93
60 3
85 89
93 89
18 49
9 80
50 3
7 93
39 94
16 31
65 14
7 14
53 31
33 39
95 78
86 99
17 25
2 21
81 29
52 37
47 48
37 51
19 2
87 48
29 34
41 47
88 86
25 76
55 79
89 54
44 10
52 36
50 66
28 37
51 21
60 29
58 6
2 69
0 1
83 86
33 99
98 76
21 96
69 18
55 72
79 1
89 54
92 24
64 26
86 79
15 70
20 10
56 50
71 84
21 23
90 54
95 92
75 96
45 9
0 70
64 26
96 15
89 76
5 64
85 40
26 53
3 63
94 10
30 39
59 44
97 71
26 84
37 25
16 70
80 20
